(set-info :smt-lib-version 2.6)
(set-logic UF)
(set-info :source |Benchmarks from the paper: "Extending Sledgehammer with SMT Solvers" by Jasmin Blanchette, Sascha Bohme, and Lawrence C. Paulson, CADE 2011.  Translated to SMT2 by Andrew Reynolds and Morgan Deters.|)
(set-info :category "industrial")
(set-info :status sat)
(declare-sort S1 0)
(declare-sort S2 0)
(declare-sort S3 0)
(declare-sort S4 0)
(declare-sort S5 0)
(declare-sort S6 0)
(declare-sort S7 0)
(declare-sort S8 0)
(declare-sort S9 0)
(declare-sort S10 0)
(declare-sort S11 0)
(declare-sort S12 0)
(declare-sort S13 0)
(declare-sort S14 0)
(declare-sort S15 0)
(declare-sort S16 0)
(declare-sort S17 0)
(declare-sort S18 0)
(declare-sort S19 0)
(declare-sort S20 0)
(declare-sort S21 0)
(declare-fun f1 () S1)
(declare-fun f2 () S1)
(declare-fun f3 (S2 S2) S1)
(declare-fun f4 (S3 S2) S2)
(declare-fun f5 (S4 S2) S3)
(declare-fun f6 () S4)
(declare-fun f7 (S5 S6) S2)
(declare-fun f8 () S5)
(declare-fun f9 (S7 S6) S6)
(declare-fun f10 () S7)
(declare-fun f11 () S7)
(declare-fun f12 () S6)
(declare-fun f13 () S2)
(declare-fun f14 () S2)
(declare-fun f15 (S8 S9) S2)
(declare-fun f16 () S8)
(declare-fun f17 (S10 S9) S9)
(declare-fun f18 (S11 S9) S10)
(declare-fun f19 () S11)
(declare-fun f20 () S9)
(declare-fun f21 () S9)
(declare-fun f22 () S11)
(declare-fun f23 () S9)
(declare-fun f24 (S12 S2) S9)
(declare-fun f25 (S13 S2) S12)
(declare-fun f26 () S13)
(declare-fun f27 () S2)
(declare-fun f28 () S4)
(declare-fun f29 (S14 S15) S2)
(declare-fun f30 (S16 S2) S14)
(declare-fun f31 () S16)
(declare-fun f32 (S17 S6) S15)
(declare-fun f33 () S17)
(declare-fun f34 (S6 S6) S1)
(declare-fun f35 () S6)
(declare-fun f36 () S7)
(declare-fun f37 (S18 S6) S9)
(declare-fun f38 () S18)
(declare-fun f39 () S15)
(declare-fun f40 () S11)
(declare-fun f41 (S19 S6) S7)
(declare-fun f42 () S19)
(declare-fun f43 () S19)
(declare-fun f44 (S20 S15) S15)
(declare-fun f45 (S21 S15) S20)
(declare-fun f46 () S21)
(declare-fun f47 () S21)
(declare-fun f48 (S15 S15) S1)
(declare-fun f49 () S4)
(declare-fun f50 () S19)
(assert (not (= f1 f2)))
(assert (not (= (f3 (f4 (f5 f6 (f7 f8 (f9 f10 (f9 f11 f12)))) f13) f14) f1)))
(assert (= (f3 f14 (f15 f16 (f17 (f18 f19 f20) f21))) f1))
(assert (= (f3 f14 (f15 f16 (f17 (f18 f22 f20) f21))) f1))
(assert (= (f3 f14 (f15 f16 (f17 (f18 f19 f20) f23))) f1))
(assert (= (f3 f14 (f15 f16 (f17 (f18 f22 f20) f23))) f1))
(assert (= f20 (f24 (f25 f26 f13) f27)))
(assert (let ((?v_0 (f32 f33 (f9 f10 (f9 f11 f12))))) (= (f4 (f5 f28 (f29 (f30 f31 f13) ?v_0)) (f29 (f30 f31 f27) ?v_0)) f14)))
(assert (= (f15 f16 f20) f14))
(assert (= (f3 f14 (f15 f16 (f17 (f18 f19 f20) f23))) f1))
(assert (= (f3 f14 (f15 f16 (f17 (f18 f22 f20) f23))) f1))
(assert (= f20 (f24 (f25 f26 f13) f27)))
(assert (= (f3 f14 (f15 f16 (f17 (f18 f19 f20) f21))) f1))
(assert (= (f3 f14 (f15 f16 (f17 (f18 f22 f20) f21))) f1))
(assert (let ((?v_0 (f32 f33 (f9 f10 (f9 f11 f12))))) (= (f4 (f5 f28 (f29 (f30 f31 f13) ?v_0)) (f29 (f30 f31 f27) ?v_0)) f14)))
(assert (forall ((?v0 S6)) (= (= (f3 f14 (f7 f8 ?v0)) f1) (= (f34 (f9 f11 f12) ?v0) f1))))
(assert (forall ((?v0 S6)) (= (= (f34 f35 (f9 f36 ?v0)) f1) (= (f34 (f9 f11 f12) ?v0) f1))))
(assert (forall ((?v0 S6)) (= (= (f3 (f7 f8 ?v0) f14) f1) (= (f34 ?v0 (f9 f11 f12)) f1))))
(assert (forall ((?v0 S6)) (= (= (f34 (f9 f36 ?v0) f35) f1) (= (f34 ?v0 (f9 f11 f12)) f1))))
(assert (= f14 (f7 f8 (f9 f11 f12))))
(assert (= f21 (f37 f38 (f9 f11 f12))))
(assert (= f35 (f9 f36 (f9 f11 f12))))
(assert (= (f7 f8 (f9 f11 f12)) f14))
(assert (= (f37 f38 (f9 f11 f12)) f21))
(assert (= (f9 f36 (f9 f11 f12)) f35))
(assert (= (f7 f8 (f9 f11 f12)) f14))
(assert (= (f37 f38 (f9 f11 f12)) f21))
(assert (= (f9 f36 (f9 f11 f12)) f35))
(assert (= (f32 f33 (f9 f11 f12)) f39))
(assert (forall ((?v0 S9)) (= (f17 (f18 f40 ?v0) (f37 f38 (f9 f11 f12))) ?v0)))
(assert (forall ((?v0 S2)) (= (f4 (f5 f6 ?v0) (f7 f8 (f9 f11 f12))) ?v0)))
(assert (forall ((?v0 S6)) (= (f9 (f41 f42 ?v0) (f9 f36 (f9 f11 f12))) ?v0)))
(assert (forall ((?v0 S9)) (= (f17 (f18 f40 (f37 f38 (f9 f11 f12))) ?v0) ?v0)))
(assert (forall ((?v0 S2)) (= (f4 (f5 f6 (f7 f8 (f9 f11 f12))) ?v0) ?v0)))
(assert (forall ((?v0 S6)) (= (f9 (f41 f42 (f9 f36 (f9 f11 f12))) ?v0) ?v0)))
(assert (forall ((?v0 S15)) (= (f3 f14 (f29 (f30 f31 (f7 f8 (f9 f10 (f9 f11 f12)))) ?v0)) f1)))
(assert (= (f4 (f5 f28 f14) f14) (f7 f8 (f9 f10 (f9 f11 f12)))))
(assert (= (f17 (f18 f19 f21) f21) (f37 f38 (f9 f10 (f9 f11 f12)))))
(assert (= (f9 (f41 f43 f35) f35) (f9 f36 (f9 f10 (f9 f11 f12)))))
(assert (= (f4 (f5 f28 f14) f14) (f7 f8 (f9 f10 (f9 f11 f12)))))
(assert (= (f17 (f18 f19 f21) f21) (f37 f38 (f9 f10 (f9 f11 f12)))))
(assert (= (f9 (f41 f43 f35) f35) (f9 f36 (f9 f10 (f9 f11 f12)))))
(assert (= (f44 (f45 f46 f39) f39) (f32 f33 (f9 f10 (f9 f11 f12)))))
(assert (forall ((?v0 S9)) (= (f17 (f18 f40 ?v0) (f37 f38 (f9 f10 (f9 f11 f12)))) (f17 (f18 f19 ?v0) ?v0))))
(assert (forall ((?v0 S2)) (= (f4 (f5 f6 ?v0) (f7 f8 (f9 f10 (f9 f11 f12)))) (f4 (f5 f28 ?v0) ?v0))))
(assert (forall ((?v0 S6)) (= (f9 (f41 f42 ?v0) (f9 f36 (f9 f10 (f9 f11 f12)))) (f9 (f41 f43 ?v0) ?v0))))
(assert (forall ((?v0 S9)) (= (f17 (f18 f40 ?v0) (f37 f38 (f9 f10 (f9 f11 f12)))) (f17 (f18 f19 ?v0) ?v0))))
(assert (forall ((?v0 S2)) (= (f4 (f5 f6 ?v0) (f7 f8 (f9 f10 (f9 f11 f12)))) (f4 (f5 f28 ?v0) ?v0))))
(assert (forall ((?v0 S6)) (= (f9 (f41 f42 ?v0) (f9 f36 (f9 f10 (f9 f11 f12)))) (f9 (f41 f43 ?v0) ?v0))))
(assert (forall ((?v0 S15)) (= (f44 (f45 f47 ?v0) (f32 f33 (f9 f10 (f9 f11 f12)))) (f44 (f45 f46 ?v0) ?v0))))
(assert (=> (forall ((?v0 S2) (?v1 S2)) (=> (= f20 (f24 (f25 f26 ?v0) ?v1)) false)) false))
(assert (forall ((?v0 S6)) (= (f34 ?v0 ?v0) f1)))
(assert (forall ((?v0 S6)) (= (f9 f11 ?v0) (f9 (f41 f43 (f9 (f41 f43 f35) ?v0)) ?v0))))
(assert (forall ((?v0 S6) (?v1 S6)) (or (= (f34 ?v0 ?v1) f1) (= (f34 ?v1 ?v0) f1))))
(assert (forall ((?v0 S6) (?v1 S6)) (= (= (f34 (f9 f36 ?v0) (f9 f36 ?v1)) f1) (= (f34 ?v0 ?v1) f1))))
(assert (forall ((?v0 S6) (?v1 S6)) (= (= (f48 (f32 f33 ?v0) (f32 f33 ?v1)) f1) (ite (= (f34 ?v0 ?v1) f1) true (= (f34 ?v0 f12) f1)))))
(assert (forall ((?v0 S6) (?v1 S6) (?v2 S9)) (= (f17 (f18 f19 (f37 f38 ?v0)) (f17 (f18 f22 (f37 f38 ?v1)) ?v2)) (f17 (f18 f22 (f37 f38 (f9 (f41 f43 ?v0) ?v1))) ?v2))))
(assert (forall ((?v0 S6) (?v1 S6) (?v2 S2)) (= (f4 (f5 f28 (f7 f8 ?v0)) (f4 (f5 f49 (f7 f8 ?v1)) ?v2)) (f4 (f5 f49 (f7 f8 (f9 (f41 f43 ?v0) ?v1))) ?v2))))
(assert (forall ((?v0 S6) (?v1 S6) (?v2 S6)) (= (f9 (f41 f43 (f9 f36 ?v0)) (f9 (f41 f50 (f9 f36 ?v1)) ?v2)) (f9 (f41 f50 (f9 f36 (f9 (f41 f43 ?v0) ?v1))) ?v2))))
(assert (forall ((?v0 S6) (?v1 S6) (?v2 S6)) (let ((?v_0 (f41 f43 ?v2))) (=> (= (f34 ?v0 ?v1) f1) (= (f34 (f9 ?v_0 ?v0) (f9 ?v_0 ?v1)) f1)))))
(assert (forall ((?v0 S6) (?v1 S6) (?v2 S6)) (=> (= (f34 ?v0 ?v1) f1) (=> (= (f34 ?v1 ?v2) f1) (= (f34 ?v0 ?v2) f1)))))
(assert (forall ((?v0 S6) (?v1 S6)) (=> (= (f34 ?v0 ?v1) f1) (=> (= (f34 ?v1 ?v0) f1) (= ?v0 ?v1)))))
(assert (forall ((?v0 S6) (?v1 S6)) (= (f7 f8 (f9 (f41 f50 ?v0) ?v1)) (f4 (f5 f49 (f7 f8 ?v0)) (f7 f8 ?v1)))))
(assert (forall ((?v0 S6) (?v1 S6)) (= (f37 f38 (f9 (f41 f50 ?v0) ?v1)) (f17 (f18 f22 (f37 f38 ?v0)) (f37 f38 ?v1)))))
(assert (forall ((?v0 S6) (?v1 S6)) (= (f9 f36 (f9 (f41 f50 ?v0) ?v1)) (f9 (f41 f50 (f9 f36 ?v0)) (f9 f36 ?v1)))))
(assert (forall ((?v0 S6) (?v1 S6) (?v2 S9)) (= (f17 (f18 f19 (f37 f38 ?v0)) (f17 (f18 f19 (f37 f38 ?v1)) ?v2)) (f17 (f18 f19 (f37 f38 (f9 (f41 f43 ?v0) ?v1))) ?v2))))
(assert (forall ((?v0 S6) (?v1 S6) (?v2 S2)) (= (f4 (f5 f28 (f7 f8 ?v0)) (f4 (f5 f28 (f7 f8 ?v1)) ?v2)) (f4 (f5 f28 (f7 f8 (f9 (f41 f43 ?v0) ?v1))) ?v2))))
(assert (forall ((?v0 S6) (?v1 S6) (?v2 S6)) (= (f9 (f41 f43 (f9 f36 ?v0)) (f9 (f41 f43 (f9 f36 ?v1)) ?v2)) (f9 (f41 f43 (f9 f36 (f9 (f41 f43 ?v0) ?v1))) ?v2))))
(assert (forall ((?v0 S6) (?v1 S6)) (= (f17 (f18 f19 (f37 f38 ?v0)) (f37 f38 ?v1)) (f37 f38 (f9 (f41 f43 ?v0) ?v1)))))
(assert (forall ((?v0 S6) (?v1 S6)) (= (f4 (f5 f28 (f7 f8 ?v0)) (f7 f8 ?v1)) (f7 f8 (f9 (f41 f43 ?v0) ?v1)))))
(assert (forall ((?v0 S6) (?v1 S6)) (= (f9 (f41 f43 (f9 f36 ?v0)) (f9 f36 ?v1)) (f9 f36 (f9 (f41 f43 ?v0) ?v1)))))
(assert (forall ((?v0 S6) (?v1 S6)) (= (f37 f38 (f9 (f41 f43 ?v0) ?v1)) (f17 (f18 f19 (f37 f38 ?v0)) (f37 f38 ?v1)))))
(assert (forall ((?v0 S6) (?v1 S6)) (= (f7 f8 (f9 (f41 f43 ?v0) ?v1)) (f4 (f5 f28 (f7 f8 ?v0)) (f7 f8 ?v1)))))
(assert (forall ((?v0 S6) (?v1 S6)) (= (f9 f36 (f9 (f41 f43 ?v0) ?v1)) (f9 (f41 f43 (f9 f36 ?v0)) (f9 f36 ?v1)))))
(assert (forall ((?v0 S6)) (= (f9 (f41 f43 ?v0) f12) ?v0)))
(assert (forall ((?v0 S6)) (= (f9 (f41 f43 f12) ?v0) ?v0)))
(assert (forall ((?v0 S6) (?v1 S6)) (= (f9 (f41 f43 (f9 f10 ?v0)) (f9 f10 ?v1)) (f9 f10 (f9 (f41 f43 ?v0) ?v1)))))
(assert (forall ((?v0 S6)) (= (f9 f10 ?v0) (f9 (f41 f43 ?v0) ?v0))))
(assert (forall ((?v0 S6) (?v1 S6)) (=> (= (f34 f12 ?v0) f1) (=> (= (f34 f12 ?v1) f1) (= (f17 (f18 f19 (f37 f38 ?v0)) (f37 f38 ?v1)) (f37 f38 (f9 (f41 f43 ?v0) ?v1)))))))
(assert (forall ((?v0 S6) (?v1 S6)) (=> (= (f34 f12 ?v0) f1) (=> (= (f34 f12 ?v1) f1) (= (f4 (f5 f28 (f7 f8 ?v0)) (f7 f8 ?v1)) (f7 f8 (f9 (f41 f43 ?v0) ?v1)))))))
(assert (forall ((?v0 S6) (?v1 S6)) (=> (= (f34 f12 ?v0) f1) (=> (= (f34 f12 ?v1) f1) (= (f9 (f41 f43 (f9 f36 ?v0)) (f9 f36 ?v1)) (f9 f36 (f9 (f41 f43 ?v0) ?v1)))))))
(assert (forall ((?v0 S6) (?v1 S6)) (=> (= (f34 f12 ?v0) f1) (=> (= (f34 f12 ?v1) f1) (= (f44 (f45 f46 (f32 f33 ?v0)) (f32 f33 ?v1)) (f32 f33 (f9 (f41 f43 ?v0) ?v1)))))))
(assert (forall ((?v0 S6)) (= (f9 (f41 f42 f12) ?v0) f12)))
(assert (forall ((?v0 S6) (?v1 S6)) (= (f9 (f41 f42 (f9 f10 ?v0)) ?v1) (f9 f10 (f9 (f41 f42 ?v0) ?v1)))))
(assert (forall ((?v0 S6) (?v1 S6)) (= (= (f34 (f9 f11 ?v0) (f9 f11 ?v1)) f1) (= (f34 ?v0 ?v1) f1))))
(assert (forall ((?v0 S6) (?v1 S6)) (= (= (f34 (f9 f11 ?v0) (f9 f11 ?v1)) f1) (= (f34 ?v0 ?v1) f1))))
(assert (= (= (f34 f12 f12) f1) true))
(assert (forall ((?v0 S6) (?v1 S6)) (= (= (f34 (f9 f10 ?v0) (f9 f10 ?v1)) f1) (= (f34 ?v0 ?v1) f1))))
(assert (forall ((?v0 S6) (?v1 S6)) (= (= (f34 (f9 f10 ?v0) (f9 f10 ?v1)) f1) (= (f34 ?v0 ?v1) f1))))
(assert (forall ((?v0 S6) (?v1 S6)) (= (f9 (f41 f42 (f9 f11 ?v0)) ?v1) (f9 (f41 f43 (f9 f10 (f9 (f41 f42 ?v0) ?v1))) ?v1))))
(assert (= f35 (f9 f36 (f9 f11 f12))))
(assert (forall ((?v0 S15)) (= (f44 (f45 f47 (f32 f33 (f9 f10 (f9 f11 f12)))) ?v0) (f44 (f45 f46 ?v0) ?v0))))
(assert (forall ((?v0 S15)) (= (f44 (f45 f47 ?v0) (f32 f33 (f9 f10 (f9 f11 f12)))) (f44 (f45 f46 ?v0) ?v0))))
(assert (= (f44 (f45 f46 f39) f39) (f32 f33 (f9 f10 (f9 f11 f12)))))
(assert (forall ((?v0 S9) (?v1 S9) (?v2 S9) (?v3 S9)) (let ((?v_0 (f18 f40 ?v0))) (= (f17 (f18 f22 (f17 ?v_0 ?v1)) (f17 (f18 f40 ?v2) ?v3)) (f17 (f18 f19 (f17 ?v_0 (f17 (f18 f22 ?v1) ?v3))) (f17 (f18 f40 (f17 (f18 f22 ?v0) ?v2)) ?v3))))))
(assert (forall ((?v0 S2) (?v1 S2) (?v2 S2) (?v3 S2)) (let ((?v_0 (f5 f6 ?v0))) (= (f4 (f5 f49 (f4 ?v_0 ?v1)) (f4 (f5 f6 ?v2) ?v3)) (f4 (f5 f28 (f4 ?v_0 (f4 (f5 f49 ?v1) ?v3))) (f4 (f5 f6 (f4 (f5 f49 ?v0) ?v2)) ?v3))))))
(assert (forall ((?v0 S6) (?v1 S6) (?v2 S6) (?v3 S6)) (let ((?v_0 (f41 f42 ?v0))) (= (f9 (f41 f50 (f9 ?v_0 ?v1)) (f9 (f41 f42 ?v2) ?v3)) (f9 (f41 f43 (f9 ?v_0 (f9 (f41 f50 ?v1) ?v3))) (f9 (f41 f42 (f9 (f41 f50 ?v0) ?v2)) ?v3))))))
(assert (= (f32 f33 (f9 f11 f12)) f39))
(assert (= f39 (f32 f33 (f9 f11 f12))))
(assert (forall ((?v0 S6) (?v1 S6)) (= (f9 (f41 f43 (f9 f11 ?v0)) (f9 f10 ?v1)) (f9 f11 (f9 (f41 f43 ?v0) ?v1)))))
(assert (forall ((?v0 S6) (?v1 S6)) (= (f9 (f41 f43 (f9 f10 ?v0)) (f9 f11 ?v1)) (f9 f11 (f9 (f41 f43 ?v0) ?v1)))))
(assert (forall ((?v0 S6)) (= (= (f34 f12 (f9 f11 ?v0)) f1) (= (f34 f12 ?v0) f1))))
(assert (forall ((?v0 S6) (?v1 S6)) (= (= (f34 (f9 f10 ?v0) (f9 f11 ?v1)) f1) (= (f34 ?v0 ?v1) f1))))
(assert (forall ((?v0 S6) (?v1 S6)) (= (= (f34 (f9 f10 ?v0) (f9 f11 ?v1)) f1) (= (f34 ?v0 ?v1) f1))))
(assert (forall ((?v0 S6)) (= (= (f34 (f9 f10 ?v0) f12) f1) (= (f34 ?v0 f12) f1))))
(assert (forall ((?v0 S6)) (= (= (f34 f12 (f9 f10 ?v0)) f1) (= (f34 f12 ?v0) f1))))
(assert (forall ((?v0 S2) (?v1 S15)) (let ((?v_1 (f32 f33 (f9 f10 (f9 f11 f12)))) (?v_0 (f30 f31 ?v0))) (= (f29 ?v_0 (f44 (f45 f47 ?v_1) ?v1)) (f29 (f30 f31 (f29 ?v_0 ?v1)) ?v_1)))))
(assert (forall ((?v0 S9) (?v1 S9)) (= (f3 (f15 f16 ?v0) (f4 (f5 f28 (f15 f16 (f17 (f18 f19 ?v0) ?v1))) (f15 f16 ?v1))) f1)))
(assert (forall ((?v0 S2) (?v1 S2) (?v2 S2)) (let ((?v_0 (f5 f28 ?v2))) (=> (= (f3 ?v0 ?v1) f1) (= (f3 (f4 ?v_0 ?v0) (f4 ?v_0 ?v1)) f1)))))
(check-sat)
(exit)
